decision_x1=[0,4];
decision_x2=[0,4];
decision_x3=[0,4];
decision_x4=[0,4];
decision_x5=[0,4];
decision_x6=[0,4];
decision_x7=[0,4];
decision_x8=[0,4];
decision_x9=[0,4];
decision_x10=[0,4];
decision_x11=[0,4];
decision_x12=[0,4];
decision_x13=[0,4];
decision_x14=[0,4];
random_y1=[0,4];
random_y2=[0,4];
random_y3=[0,4];
random_y4=[0,4];
random_y5=[0,4];
random_y6=[0,4];
random_y7=[0,4];
constraint_x2_x1=[
0,1,9|
0,2,3.3|
0,3,3.7|
0,4,7.9|
1,0,5.8|
1,2,3.7|
1,3,1.2|
1,4,2.5|
2,0,8.6|
2,1,4.5|
2,3,9.2|
2,4,0.79|
3,0,3.8|
3,1,6.7|
3,2,1.4|
3,4,9.2|
4,0,7.6|
4,1,3.1|
4,2,1.4|
4,3,8.8|
];
constraint_x3_x1=[
0,1,5.1|
0,2,1.7|
0,3,6.3|
0,4,3.9|
1,0,9.1|
1,2,7.6|
1,3,9|
1,4,2.1|
2,0,5.6|
2,1,6.5|
2,3,9.7|
2,4,9.3|
3,0,8.9|
3,1,6.7|
3,2,3.5|
3,4,1.1|
4,0,7.5|
4,1,0.53|
4,2,3.9|
4,3,5.8|
];
constraint_x4_x1=[
0,1,3.8|
0,2,8.4|
0,3,3.3|
0,4,8.2|
1,0,5|
1,2,8.2|
1,3,1.7|
1,4,1.6|
2,0,3|
2,1,2.2|
2,3,8.2|
2,4,2.8|
3,0,7.2|
3,1,4|
3,2,3.4|
3,4,9.4|
4,0,5.2|
4,1,0.88|
4,2,1.3|
4,3,6.3|
];
constraint_x4_x2=[
0,1,5.1|
0,2,7.8|
0,3,8.4|
0,4,1.2|
1,0,7.7|
1,2,6.2|
1,3,2.6|
1,4,1.9|
2,0,4.5|
2,1,5.3|
2,3,8.8|
2,4,7.9|
3,0,5.2|
3,1,1.7|
3,2,0.084|
3,4,3.3|
4,0,8.2|
4,1,1.3|
4,2,5.8|
4,3,0.059|
];
constraint_x4_x3=[
0,1,5.7|
0,2,9.8|
0,3,9.8|
0,4,4.4|
1,0,5.8|
1,2,7.9|
1,3,5.6|
1,4,2.4|
2,0,4.6|
2,1,7.9|
2,3,5.9|
2,4,2.3|
3,0,7.6|
3,1,0.3|
3,2,9.2|
3,4,2|
4,0,7.2|
4,1,5.4|
4,2,9.1|
4,3,2.6|
];
constraint_x5_x2=[
0,1,4.8|
0,2,9.5|
0,3,2.9|
0,4,2.8|
1,0,8.5|
1,2,3.7|
1,3,2.3|
1,4,1.6|
2,0,6.8|
2,1,3.9|
2,3,5.7|
2,4,1.2|
3,0,5.8|
3,1,6.6|
3,2,6.9|
3,4,8.9|
4,0,0.1|
4,1,3.5|
4,2,0.56|
4,3,3.7|
];
constraint_x5_x3=[
0,1,4.2|
0,2,8.2|
0,3,0.52|
0,4,7|
1,0,8.4|
1,2,2.2|
1,3,0.98|
1,4,9|
2,0,6.9|
2,1,6.6|
2,3,10|
2,4,2.2|
3,0,5.2|
3,1,2.8|
3,2,2.9|
3,4,5.5|
4,0,8.8|
4,1,0.047|
4,2,6.1|
4,3,1.2|
];
constraint_x6_x2=[
0,1,1.1|
0,2,6.4|
0,3,8.3|
0,4,9.2|
1,0,9.2|
1,2,9.2|
1,3,0.71|
1,4,9.6|
2,0,7.8|
2,1,7.3|
2,3,0.077|
2,4,6.5|
3,0,9.9|
3,1,6.4|
3,2,9.5|
3,4,9.7|
4,0,6.6|
4,1,3|
4,2,8.8|
4,3,0.82|
];
constraint_x6_x5=[
0,1,0.47|
0,2,5.6|
0,3,1.1|
0,4,4.9|
1,0,1.7|
1,2,9.9|
1,3,7|
1,4,4.9|
2,0,5.5|
2,1,0.69|
2,3,2.2|
2,4,8|
3,0,4|
3,1,6.3|
3,2,4.1|
3,4,2.4|
4,0,1.5|
4,1,0.41|
4,2,7.1|
4,3,8.3|
];
constraint_x7_x2=[
0,1,2|
0,2,7.6|
0,3,8.1|
0,4,7.6|
1,0,9.7|
1,2,0.28|
1,3,5|
1,4,1.6|
2,0,5.6|
2,1,3.5|
2,3,2.6|
2,4,5.7|
3,0,5.8|
3,1,5|
3,2,9.2|
3,4,0.51|
4,0,0.28|
4,1,3.9|
4,2,5|
4,3,7.9|
];
constraint_x7_x3=[
0,1,6.4|
0,2,6.4|
0,3,4.7|
0,4,4.9|
1,0,5.6|
1,2,6.3|
1,3,6.9|
1,4,2.2|
2,0,3.3|
2,1,9.3|
2,3,8|
2,4,6.5|
3,0,8.7|
3,1,2.8|
3,2,9.2|
3,4,7.3|
4,0,9.9|
4,1,6.6|
4,2,0.92|
4,3,5.6|
];
constraint_x7_x5=[
0,1,0.82|
0,2,0.92|
0,3,8.1|
0,4,5.3|
1,0,3.2|
1,2,1.1|
1,3,0.14|
1,4,6.8|
2,0,3.1|
2,1,2.5|
2,3,7.2|
2,4,7.2|
3,0,6.2|
3,1,6.4|
3,2,4.4|
3,4,8.4|
4,0,3.4|
4,1,2.5|
4,2,3.6|
4,3,5.2|
];
constraint_x7_x6=[
0,1,7.4|
0,2,1.3|
0,3,5|
0,4,3.4|
1,0,5.2|
1,2,3.1|
1,3,8.5|
1,4,5.5|
2,0,1.2|
2,1,9|
2,3,2.8|
2,4,5.8|
3,0,1.5|
3,1,0.32|
3,2,3.7|
3,4,1.1|
4,0,3|
4,1,6.6|
4,2,1|
4,3,0.25|
];
constraint_x8_x4=[
0,1,0.66|
0,2,8.3|
0,3,3.4|
0,4,4.4|
1,0,1.5|
1,2,7.7|
1,3,2.2|
1,4,3.4|
2,0,3.9|
2,1,5.4|
2,3,9.1|
2,4,1.2|
3,0,6.2|
3,1,6.7|
3,2,8.9|
3,4,7.4|
4,0,5.8|
4,1,6.4|
4,2,9.6|
4,3,8.6|
];
constraint_x8_x6=[
0,1,9.5|
0,2,3.7|
0,3,4.5|
0,4,8.6|
1,0,5.5|
1,2,1.9|
1,3,6.7|
1,4,2.1|
2,0,3.5|
2,1,2.1|
2,3,7.9|
2,4,1.3|
3,0,1.2|
3,1,9.1|
3,2,3.6|
3,4,3.2|
4,0,3.1|
4,1,1.8|
4,2,4.1|
4,3,8.6|
];
constraint_x9_x1=[
0,1,9.5|
0,2,7|
0,3,6.3|
0,4,1.6|
1,0,3.5|
1,2,5.2|
1,3,7.3|
1,4,7.9|
2,0,6.1|
2,1,6.3|
2,3,3.8|
2,4,8|
3,0,7.8|
3,1,3.4|
3,2,2.7|
3,4,3.9|
4,0,6.9|
4,1,3.1|
4,2,1.6|
4,3,4.9|
];
constraint_x9_x2=[
0,1,6.3|
0,2,0.12|
0,3,6.5|
0,4,4.9|
1,0,5.7|
1,2,4.6|
1,3,3.1|
1,4,3.2|
2,0,3.8|
2,1,6.6|
2,3,5.8|
2,4,4.1|
3,0,0.036|
3,1,3.5|
3,2,5.8|
3,4,8.6|
4,0,0.68|
4,1,6.5|
4,2,7.3|
4,3,2.9|
];
constraint_x9_x4=[
0,1,2|
0,2,1.6|
0,3,1.3|
0,4,7.2|
1,0,2.9|
1,2,9.6|
1,3,4.9|
1,4,1.8|
2,0,8.2|
2,1,9.6|
2,3,5.5|
2,4,8.5|
3,0,2.6|
3,1,0.6|
3,2,0.39|
3,4,1.8|
4,0,6.2|
4,1,0.074|
4,2,1.1|
4,3,8.1|
];
constraint_x9_x5=[
0,1,6|
0,2,5.9|
0,3,3.6|
0,4,9.5|
1,0,3.7|
1,2,6.7|
1,3,4.6|
1,4,2.8|
2,0,7.6|
2,1,6.4|
2,3,1.2|
2,4,0.19|
3,0,2.4|
3,1,1.8|
3,2,2.3|
3,4,3.6|
4,0,1|
4,1,6.4|
4,2,6.2|
4,3,9.6|
];
constraint_x9_x6=[
0,1,4.1|
0,2,9|
0,3,8.2|
0,4,0.4|
1,0,0.82|
1,2,2.3|
1,3,3.5|
1,4,0.85|
2,0,9.7|
2,1,9.5|
2,3,9.8|
2,4,6.4|
3,0,0.43|
3,1,8.1|
3,2,0.54|
3,4,3.8|
4,0,7|
4,1,7.2|
4,2,8|
4,3,9.3|
];
constraint_x9_x7=[
0,1,3.9|
0,2,1.3|
0,3,8.6|
0,4,2.4|
1,0,7.1|
1,2,0.78|
1,3,3.7|
1,4,7.6|
2,0,2.8|
2,1,8.6|
2,3,3.8|
2,4,7.7|
3,0,1.4|
3,1,7|
3,2,7.8|
3,4,0.28|
4,0,2.1|
4,1,3|
4,2,3.2|
4,3,0.43|
];
constraint_x10_x1=[
0,1,8.5|
0,2,1.8|
0,3,8.6|
0,4,1.7|
1,0,6.5|
1,2,6.7|
1,3,6.8|
1,4,5.3|
2,0,1.5|
2,1,3.8|
2,3,8.1|
2,4,3.1|
3,0,9.7|
3,1,9.8|
3,2,9.2|
3,4,7.8|
4,0,3.3|
4,1,5.7|
4,2,5.8|
4,3,2.2|
];
constraint_x10_x3=[
0,1,0.07|
0,2,3.3|
0,3,5.2|
0,4,2.1|
1,0,9.9|
1,2,4.4|
1,3,9.7|
1,4,0.57|
2,0,0.18|
2,1,3.1|
2,3,2|
2,4,7.9|
3,0,0.95|
3,1,8.2|
3,2,4.2|
3,4,0.7|
4,0,0.93|
4,1,5.5|
4,2,9.8|
4,3,2.2|
];
constraint_x10_x5=[
0,1,5.2|
0,2,0.44|
0,3,9.3|
0,4,0.24|
1,0,5.3|
1,2,3.8|
1,3,1.5|
1,4,8.1|
2,0,6.9|
2,1,8.3|
2,3,8|
2,4,1.8|
3,0,10|
3,1,7.8|
3,2,2.3|
3,4,6.2|
4,0,1.6|
4,1,8.3|
4,2,0.69|
4,3,3.4|
];
constraint_x11_x1=[
0,1,8.7|
0,2,6.9|
0,3,8|
0,4,2.5|
1,0,2|
1,2,8.9|
1,3,4|
1,4,8.2|
2,0,1.3|
2,1,6.4|
2,3,3.2|
2,4,0.061|
3,0,9.9|
3,1,8|
3,2,8.3|
3,4,4.6|
4,0,5.4|
4,1,4.7|
4,2,8.4|
4,3,1.4|
];
constraint_x11_x3=[
0,1,2.2|
0,2,6.3|
0,3,0.58|
0,4,4.8|
1,0,0.45|
1,2,2.1|
1,3,0.15|
1,4,8|
2,0,9.4|
2,1,7.7|
2,3,8.1|
2,4,1.2|
3,0,5|
3,1,2.6|
3,2,8.5|
3,4,3.9|
4,0,4.8|
4,1,5.2|
4,2,6.5|
4,3,8.8|
];
constraint_x11_x6=[
0,1,2.7|
0,2,4.7|
0,3,9.4|
0,4,3.4|
1,0,0.61|
1,2,3|
1,3,7.6|
1,4,3.8|
2,0,6.9|
2,1,9.6|
2,3,6.7|
2,4,7.6|
3,0,5.8|
3,1,2.1|
3,2,9.4|
3,4,1.7|
4,0,4.5|
4,1,6.7|
4,2,9.6|
4,3,5.5|
];
constraint_x12_x1=[
0,1,7.8|
0,2,5.6|
0,3,1.4|
0,4,7.6|
1,0,5.9|
1,2,6.4|
1,3,1.1|
1,4,7.8|
2,0,3.6|
2,1,2.4|
2,3,2|
2,4,0.49|
3,0,8.2|
3,1,3.7|
3,2,8|
3,4,9.1|
4,0,6.4|
4,1,6.4|
4,2,4.9|
4,3,8.8|
];
constraint_x12_x2=[
0,1,9.2|
0,2,9|
0,3,9.5|
0,4,8.1|
1,0,5.5|
1,2,0.3|
1,3,8.2|
1,4,9.3|
2,0,1.9|
2,1,1.3|
2,3,4.6|
2,4,5.9|
3,0,3.5|
3,1,7.7|
3,2,5.1|
3,4,4.3|
4,0,8.7|
4,1,0.14|
4,2,8.1|
4,3,7.7|
];
constraint_x12_x8=[
0,1,6.9|
0,2,3.4|
0,3,2.1|
0,4,3.2|
1,0,3.5|
1,2,0.97|
1,3,9.8|
1,4,0.39|
2,0,6.9|
2,1,0.77|
2,3,6.9|
2,4,1.1|
3,0,1.3|
3,1,3.1|
3,2,6.2|
3,4,9.7|
4,0,8.7|
4,1,3.9|
4,2,7.1|
4,3,4.5|
];
constraint_x12_x9=[
0,1,7.4|
0,2,0.63|
0,3,1.4|
0,4,6.9|
1,0,3.3|
1,2,7.6|
1,3,6.6|
1,4,9.2|
2,0,8.8|
2,1,5.2|
2,3,5.3|
2,4,6.6|
3,0,4.4|
3,1,5|
3,2,2.6|
3,4,5.8|
4,0,3.8|
4,1,0.51|
4,2,0.46|
4,3,3|
];
constraint_x12_x10=[
0,1,8.3|
0,2,8.3|
0,3,7.5|
0,4,5.4|
1,0,1.4|
1,2,7.1|
1,3,1.6|
1,4,0.46|
2,0,6.5|
2,1,7.7|
2,3,9.6|
2,4,5.3|
3,0,9.5|
3,1,6.1|
3,2,1.9|
3,4,3.3|
4,0,0.31|
4,1,6.3|
4,2,7.6|
4,3,2|
];
constraint_x13_x1=[
0,1,0.81|
0,2,5.2|
0,3,4.2|
0,4,5.6|
1,0,3.1|
1,2,7.8|
1,3,4.1|
1,4,0.67|
2,0,8.4|
2,1,4.1|
2,3,5.2|
2,4,5.5|
3,0,4.5|
3,1,1.3|
3,2,2.7|
3,4,4.1|
4,0,7.2|
4,1,5|
4,2,2|
4,3,5.9|
];
constraint_x13_x2=[
0,1,2.7|
0,2,7.3|
0,3,6.7|
0,4,0.24|
1,0,3.2|
1,2,2.6|
1,3,1.4|
1,4,5|
2,0,6.5|
2,1,7.5|
2,3,0.28|
2,4,7.6|
3,0,9.4|
3,1,0.44|
3,2,2.4|
3,4,8.7|
4,0,1.5|
4,1,8.8|
4,2,6.3|
4,3,2.2|
];
constraint_x13_x3=[
0,1,3.6|
0,2,10|
0,3,2.9|
0,4,2|
1,0,2.9|
1,2,6.1|
1,3,3.4|
1,4,5.6|
2,0,4.9|
2,1,7.8|
2,3,9.9|
2,4,0.85|
3,0,4.1|
3,1,0.82|
3,2,1.1|
3,4,9.8|
4,0,4.1|
4,1,6.3|
4,2,3.4|
4,3,2.1|
];
constraint_x13_x6=[
0,1,2.1|
0,2,7.8|
0,3,9.5|
0,4,1|
1,0,6.1|
1,2,2.3|
1,3,0.85|
1,4,2.6|
2,0,1|
2,1,2.5|
2,3,4.1|
2,4,2.2|
3,0,8.7|
3,1,2.3|
3,2,9.5|
3,4,9.2|
4,0,5.4|
4,1,6.3|
4,2,4.3|
4,3,6.4|
];
constraint_x13_x7=[
0,1,7|
0,2,5.3|
0,3,7.4|
0,4,5.7|
1,0,3.1|
1,2,7.6|
1,3,3.6|
1,4,9.3|
2,0,7.7|
2,1,7|
2,3,7.1|
2,4,4.4|
3,0,9.4|
3,1,0.096|
3,2,9.7|
3,4,0.24|
4,0,4.4|
4,1,7.4|
4,2,3.6|
4,3,2|
];
constraint_x13_x8=[
0,1,6|
0,2,9.9|
0,3,6.5|
0,4,7.3|
1,0,8.6|
1,2,0.63|
1,3,8.5|
1,4,2.3|
2,0,6.8|
2,1,9.2|
2,3,7.7|
2,4,7.4|
3,0,2.5|
3,1,3.6|
3,2,1.6|
3,4,1|
4,0,5.6|
4,1,3.7|
4,2,8.8|
4,3,0.053|
];
constraint_x13_x10=[
0,1,7.4|
0,2,5|
0,3,0.32|
0,4,8.5|
1,0,3|
1,2,0.87|
1,3,3.7|
1,4,8.7|
2,0,7|
2,1,9.5|
2,3,4.8|
2,4,3.9|
3,0,6.6|
3,1,1.9|
3,2,2|
3,4,9.4|
4,0,6.8|
4,1,8.8|
4,2,7.6|
4,3,6.5|
];
constraint_x13_x12=[
0,1,6.7|
0,2,8|
0,3,9.9|
0,4,0.19|
1,0,4.4|
1,2,6.5|
1,3,8|
1,4,9.4|
2,0,5.7|
2,1,7.9|
2,3,0.76|
2,4,5.7|
3,0,5.6|
3,1,3.8|
3,2,8.8|
3,4,7.1|
4,0,4.9|
4,1,2.4|
4,2,8.2|
4,3,8.1|
];
constraint_x14_x1=[
0,1,1.2|
0,2,9.5|
0,3,5.7|
0,4,2.9|
1,0,3.4|
1,2,0.33|
1,3,0.9|
1,4,3.1|
2,0,5.9|
2,1,8.7|
2,3,3.7|
2,4,0.0064|
3,0,0.27|
3,1,5.7|
3,2,4.2|
3,4,2.8|
4,0,4.7|
4,1,4.1|
4,2,5.6|
4,3,5.4|
];
constraint_x14_x3=[
0,1,2.8|
0,2,5.5|
0,3,1.4|
0,4,2.3|
1,0,9.5|
1,2,1.7|
1,3,1.4|
1,4,6.5|
2,0,3.2|
2,1,4.1|
2,3,8.7|
2,4,2.8|
3,0,6.6|
3,1,2.6|
3,2,3.1|
3,4,8.9|
4,0,3.6|
4,1,0.47|
4,2,0.5|
4,3,6.8|
];
constraint_x14_x5=[
0,1,0.85|
0,2,4.1|
0,3,3.4|
0,4,8.8|
1,0,3.4|
1,2,0.45|
1,3,5|
1,4,2.6|
2,0,5.4|
2,1,4.6|
2,3,3.4|
2,4,8.4|
3,0,1.2|
3,1,5.8|
3,2,9.3|
3,4,3.9|
4,0,7.6|
4,1,0.67|
4,2,5.8|
4,3,8.8|
];
constraint_x14_x11=[
0,1,8.6|
0,2,6.9|
0,3,3.9|
0,4,5.2|
1,0,0.27|
1,2,1.8|
1,3,9.9|
1,4,7.3|
2,0,9.3|
2,1,2.9|
2,3,8.3|
2,4,8.3|
3,0,8|
3,1,4.3|
3,2,7|
3,4,9.1|
4,0,3.4|
4,1,3.1|
4,2,6.8|
4,3,0.21|
];
constraint_x14_x12=[
0,1,5.3|
0,2,8.1|
0,3,6.4|
0,4,4.5|
1,0,9.3|
1,2,3.8|
1,3,1.9|
1,4,5.6|
2,0,8.7|
2,1,8.5|
2,3,9.1|
2,4,1.2|
3,0,4.2|
3,1,5|
3,2,8.6|
3,4,2.4|
4,0,7.5|
4,1,3|
4,2,6.4|
4,3,1.3|
];
constraint_x14_x13=[
0,1,0.32|
0,2,0.31|
0,3,4.8|
0,4,7.2|
1,0,4.3|
1,2,0.71|
1,3,5.2|
1,4,9.6|
2,0,3.2|
2,1,0.89|
2,3,8.1|
2,4,8.8|
3,0,1.2|
3,1,4.3|
3,2,9.9|
3,4,8.1|
4,0,4.7|
4,1,3.9|
4,2,2.7|
4,3,0.78|
];
constraint_x1_y1=[
0,0,2.4|
0,1,1.8|
0,2,3.8|
0,3,3.8|
0,4,1.7|
1,0,3.9|
1,1,3.1|
1,2,2.8|
1,3,9.8|
1,4,10|
2,0,6.9|
2,1,5.6|
2,2,6.3|
2,3,5.7|
2,4,4.3|
3,0,6.1|
3,1,9.2|
3,2,7.7|
3,3,5.5|
3,4,7.7|
4,0,2.3|
4,1,6.6|
4,2,4|
4,3,2.1|
4,4,5.4|
];
constraint_x2_y2=[
0,0,0.49|
0,1,1.7|
0,2,7|
0,3,3.4|
0,4,8.9|
1,0,6.8|
1,1,8.9|
1,2,9.2|
1,3,5.6|
1,4,7.5|
2,0,5.4|
2,1,2.1|
2,2,1.2|
2,3,1.7|
2,4,9.6|
3,0,2.5|
3,1,7.4|
3,2,7.8|
3,3,8|
3,4,9.2|
4,0,2|
4,1,0.47|
4,2,5.6|
4,3,7.7|
4,4,0.48|
];
constraint_x3_y3=[
0,0,5.9|
0,1,2|
0,2,7.1|
0,3,2.3|
0,4,0.02|
1,0,2.8|
1,1,6.3|
1,2,5.9|
1,3,3.4|
1,4,3.5|
2,0,1.5|
2,1,2.4|
2,2,9.6|
2,3,5|
2,4,6.7|
3,0,7|
3,1,9.2|
3,2,8.5|
3,3,9.4|
3,4,1.3|
4,0,5.9|
4,1,5.3|
4,2,3.2|
4,3,6.9|
4,4,9.9|
];
constraint_x4_y4=[
0,0,1.9|
0,1,3.7|
0,2,9.5|
0,3,6.3|
0,4,2.5|
1,0,1.5|
1,1,7.8|
1,2,1|
1,3,7.5|
1,4,7.3|
2,0,3.9|
2,1,8.7|
2,2,5.2|
2,3,9|
2,4,4.8|
3,0,9.3|
3,1,6.2|
3,2,8.4|
3,3,6.9|
3,4,9|
4,0,7.6|
4,1,2.6|
4,2,6|
4,3,0.62|
4,4,5.5|
];
constraint_x5_y5=[
0,0,0.22|
0,1,6.6|
0,2,5|
0,3,0.36|
0,4,5|
1,0,4.2|
1,1,8.6|
1,2,3.8|
1,3,7.7|
1,4,5.4|
2,0,4.6|
2,1,2.9|
2,2,4.8|
2,3,5.6|
2,4,4.7|
3,0,9.3|
3,1,8.6|
3,2,8.7|
3,3,2.3|
3,4,3.1|
4,0,6.2|
4,1,0.33|
4,2,7.8|
4,3,6.2|
4,4,9.2|
];
constraint_x6_y6=[
0,0,2.1|
0,1,0.019|
0,2,8.3|
0,3,1.5|
0,4,2.9|
1,0,4.7|
1,1,9.1|
1,2,3.1|
1,3,3.6|
1,4,4.4|
2,0,8.1|
2,1,0.4|
2,2,3.5|
2,3,9.3|
2,4,9.5|
3,0,0.98|
3,1,6|
3,2,8.9|
3,3,3.4|
3,4,6.5|
4,0,4.4|
4,1,0.35|
4,2,7.5|
4,3,3.6|
4,4,5.6|
];
constraint_x7_y7=[
0,0,1.6|
0,1,7.6|
0,2,1.3|
0,3,4.7|
0,4,4.2|
1,0,4.1|
1,1,3.9|
1,2,3.3|
1,3,5.9|
1,4,1.3|
2,0,4.8|
2,1,8.2|
2,2,0.84|
2,3,2.4|
2,4,8.6|
3,0,7.5|
3,1,2.9|
3,2,2.6|
3,3,0.7|
3,4,1.7|
4,0,8.6|
4,1,5.8|
4,2,5.7|
4,3,5.3|
4,4,6.4|
];
initial_distribution_y1=[0.16,0.049,0.25,0.27,0.27];
initial_distribution_y2=[0.086,0.19,0.014,0.22,0.49];
initial_distribution_y3=[0.11,0.26,0.068,0.31,0.26];
initial_distribution_y4=[0.15,0.11,0.31,0.37,0.06];
initial_distribution_y5=[0.27,0.036,0.32,0.17,0.2];
initial_distribution_y6=[0.23,0.18,0.073,0.32,0.21];
initial_distribution_y7=[0.15,0.25,0.042,0.21,0.35];
transition_y1=[
0.38,0.23,0.02,0.19,0.18|
0.13,0.22,0.22,0.2,0.24|
0.16,0.12,0.25,0.27,0.21|
0.12,0.057,0.26,0.21,0.36|
0.4,0.04,0.0092,0.47,0.084|
];
transition_y2=[
0.24,0.21,0.18,0.28,0.078|
0.34,0.29,0.22,0.067,0.093|
0.066,0.1,0.024,0.63,0.18|
0.11,0.28,0.25,0.27,0.086|
0.24,0.36,0.023,0.058,0.32|
];
transition_y3=[
0.43,0.1,0.066,0.11,0.29|
0.064,0.12,0.57,0.13,0.12|
0.28,0.019,0.29,0.088,0.32|
0.23,0.12,0.38,0.24,0.031|
0.11,0.15,0.12,0.24,0.38|
];
transition_y4=[
0.067,0.19,0.37,0.13,0.24|
0.2,0.34,0.041,0.31,0.1|
0.12,0.27,0.11,0.18,0.32|
0.39,0.22,0.16,0.17,0.05|
0.08,0.21,0.32,0.18,0.22|
];
transition_y5=[
0.22,0.029,0.35,0.27,0.14|
0.17,0.058,0.19,0.34,0.25|
0.47,0.012,0.066,0.35,0.1|
0.3,0.11,0.18,0.3,0.11|
0.26,0.21,0.13,0.09,0.31|
];
transition_y6=[
0.13,0.04,0.33,0.16,0.34|
0.14,0.07,0.35,0.2,0.24|
0.31,0.12,0.28,0.19,0.11|
0.2,0.031,0.31,0.25,0.2|
0.063,0.32,0.4,0.21,0.0091|
];
transition_y7=[
0.33,0.092,0.07,0.33,0.18|
0.18,0.25,0.2,0.094,0.28|
0.38,0.13,0.044,0.38,0.072|
0.24,0.27,0.079,0.18,0.23|
0.37,0.015,0.24,0.059,0.31|
];
